p wcnf 140 280 281 
1 83 2 0 
1 22 -71 0 
1 37 -91 0 
1 -135 136 0 
1 -79 -45 0 
1 98 -4 0 
1 117 -94 0 
1 -38 46 0 
1 -137 4 0 
1 -2 -54 0 
1 -25 24 0 
1 -33 124 0 
1 -44 73 0 
1 -119 65 0 
1 103 55 0 
1 -102 -44 0 
1 73 111 0 
1 -22 54 0 
1 -105 -135 0 
1 105 9 0 
1 114 -107 0 
1 -137 -135 0 
1 22 19 0 
1 130 -82 0 
1 -45 86 0 
1 -122 27 0 
1 -48 89 0 
1 18 -79 0 
1 1 -105 0 
1 -31 38 0 
1 85 -55 0 
1 33 -73 0 
1 17 93 0 
1 -134 -101 0 
1 82 44 0 
1 48 130 0 
1 130 109 0 
1 -2 124 0 
1 138 17 0 
1 51 -124 0 
1 -140 9 0 
1 -12 113 0 
1 119 -85 0 
1 -81 60 0 
1 3 -58 0 
1 1 -14 0 
1 39 45 0 
1 66 52 0 
1 -120 44 0 
1 -121 115 0 
1 -134 -74 0 
1 85 102 0 
1 -31 87 0 
1 -117 83 0 
1 -122 106 0 
1 1 -57 0 
1 -14 95 0 
1 11 28 0 
1 140 102 0 
1 137 -96 0 
1 13 -104 0 
1 -132 139 0 
1 -128 -124 0 
1 -65 -58 0 
1 -34 -59 0 
1 139 -67 0 
1 140 -54 0 
1 62 121 0 
1 -4 111 0 
1 -94 -97 0 
1 51 -33 0 
1 63 -42 0 
1 -55 134 0 
1 62 30 0 
1 -128 -124 0 
1 124 -32 0 
1 39 125 0 
1 97 56 0 
1 72 -104 0 
1 -15 -84 0 
1 50 -102 0 
1 -79 72 0 
1 26 6 0 
1 -56 -51 0 
1 -85 -68 0 
1 102 -40 0 
1 -130 -74 0 
1 -88 -100 0 
1 -22 -122 0 
1 -103 -134 0 
1 -40 50 0 
1 -119 83 0 
1 127 29 0 
1 132 -74 0 
1 -76 82 0 
1 36 -68 0 
1 119 96 0 
1 120 18 0 
1 -84 74 0 
1 -67 33 0 
1 -124 130 0 
1 -102 -79 0 
1 -58 35 0 
1 -102 -85 0 
1 -67 2 0 
1 -95 -83 0 
1 -118 86 0 
1 -63 10 0 
1 128 103 0 
1 45 -94 0 
1 110 25 0 
1 67 -9 0 
1 76 84 0 
1 28 19 0 
1 82 41 0 
1 -130 -124 0 
1 136 56 0 
1 16 -91 0 
1 123 124 0 
1 81 -62 0 
1 59 -129 0 
1 -109 -135 0 
1 -79 125 0 
1 -51 132 0 
1 -65 87 0 
1 -56 -138 0 
1 -31 -67 0 
1 58 100 0 
1 37 100 0 
1 -49 -128 0 
1 -6 -106 0 
1 -8 -125 0 
1 -42 97 0 
1 -22 33 0 
1 52 -7 0 
1 -88 125 0 
1 -125 113 0 
1 -85 10 0 
1 17 92 0 
1 93 40 0 
1 -9 67 0 
1 96 -71 0 
1 37 -23 0 
1 -69 131 0 
1 62 132 0 
1 -50 73 0 
1 -85 28 0 
1 84 -93 0 
1 31 -123 0 
1 -19 -125 0 
1 -58 49 0 
1 3 -22 0 
1 -115 -48 0 
1 -6 -85 0 
1 -122 111 0 
1 59 -75 0 
1 135 -60 0 
1 23 88 0 
1 115 86 0 
1 -37 85 0 
1 -71 -44 0 
1 -69 -41 0 
1 111 -77 0 
1 17 53 0 
1 -49 107 0 
1 -79 -19 0 
1 -18 -140 0 
1 110 74 0 
1 24 -72 0 
1 138 -113 0 
1 104 2 0 
1 -99 -85 0 
1 -47 11 0 
1 81 47 0 
1 47 83 0 
1 39 66 0 
1 -34 -22 0 
1 -67 36 0 
1 -22 -41 0 
1 -117 -16 0 
1 4 16 0 
1 -15 -34 0 
1 -137 34 0 
1 67 8 0 
1 -107 -47 0 
1 -52 25 0 
1 -133 96 0 
1 -21 -122 0 
1 -39 130 0 
1 -79 39 0 
1 -13 12 0 
1 -110 -29 0 
1 100 -122 0 
1 100 -77 0 
1 45 25 0 
1 70 4 0 
1 63 6 0 
1 -55 -20 0 
1 115 47 0 
1 -55 5 0 
1 47 -64 0 
1 3 131 0 
1 -56 -76 0 
1 29 -31 0 
1 41 -20 0 
1 -119 -71 0 
1 42 83 0 
1 -8 134 0 
1 -3 -25 0 
1 102 -67 0 
1 -66 22 0 
1 -61 85 0 
1 -26 125 0 
1 59 -49 0 
1 -119 -52 0 
1 -122 -134 0 
1 -93 -100 0 
1 -100 24 0 
1 66 44 0 
1 -62 126 0 
1 76 71 0 
1 126 96 0 
1 43 28 0 
1 103 50 0 
1 45 -44 0 
1 -56 115 0 
1 48 -110 0 
1 107 91 0 
1 -42 -12 0 
1 134 -76 0 
1 15 37 0 
1 63 -55 0 
1 12 27 0 
1 92 105 0 
1 134 -27 0 
1 -50 128 0 
1 -63 -23 0 
1 28 118 0 
1 -16 -11 0 
1 -44 79 0 
1 9 52 0 
1 118 67 0 
1 -80 48 0 
1 107 36 0 
1 -30 -139 0 
1 26 -134 0 
1 -84 5 0 
1 -52 9 0 
1 -75 72 0 
1 110 91 0 
1 -90 -86 0 
1 135 76 0 
1 131 -137 0 
1 -71 -65 0 
1 115 2 0 
1 -55 -23 0 
1 -85 -64 0 
1 15 -103 0 
1 8 9 0 
1 111 -78 0 
1 -90 106 0 
1 -123 -22 0 
1 139 -93 0 
1 -43 -63 0 
1 -38 17 0 
1 97 -15 0 
1 -26 4 0 
1 2 -48 0 
1 137 -52 0 
1 -48 140 0 
1 -84 102 0 
1 94 -66 0 
1 55 120 0 
1 -56 37 0 
1 25 -60 0 
1 -40 3 0 
1 -128 -104 0 
1 -101 -105 0 
1 135 -53 0 
1 -114 86 0 
